
Value of objective function: 1.70000000

Actual values of the variables:
score                         1.7
x_0_1                           5
x_0_2                           7
x_1_1                           5
x_1_2                           8
x_2_1                           2
x_2_2                           7
x_3_1                           3
x_3_2                           7
x_4_1                           3
x_4_2                           7
x_5_1                           3
x_5_2                           7
x_6_1                           3
x_6_2                           7
x_7_1                           3
x_7_2                           7
x_8_1                           3
x_8_2                           7
x_9_1                           3
x_9_2                           7
x_10_1                          3
x_10_2                          7
x_11_1                          3
x_11_2                          7
x_12_1                          3
x_12_2                          7
x_13_1                          3
x_13_2                          7
x_14_1                          3
x_14_2                          7
x_15_1                          3
x_15_2                          7
x_16_1                          3
x_16_2                          7
x_17_1                          3
x_17_2                          7
x_18_1                          3
x_18_2                          7
x_19_1                          3
x_19_2                          7
x_20_1                          3
x_20_2                          7
x_21_1                          3
x_21_2                          7
x_22_1                          3
x_22_2                          7
x_23_1                          3
x_23_2                          7
x_24_1                          3
x_24_2                          7
x_25_1                          3
x_25_2                          7
x_26_1                          3
x_26_2                          7
x_27_1                          3
x_27_2                          7
